
Gurobi 8.1.1 (linux64, Python) logging started Wed Oct 23 14:19:11 2019

Academic license - for non-commercial use only

Gurobi 8.1.1 (linux64, Python) logging started Wed Oct 23 14:25:01 2019

Academic license - for non-commercial use only

Gurobi 8.1.1 (linux64, Python) logging started Wed Oct 23 14:25:12 2019

Academic license - for non-commercial use only

Gurobi 8.1.1 (linux64, Python) logging started Wed Oct 23 14:25:25 2019

Academic license - for non-commercial use only

Gurobi 8.1.1 (linux64, Python) logging started Wed Oct 23 14:25:39 2019

Academic license - for non-commercial use only

Gurobi 8.1.1 (linux64, Python) logging started Wed Oct 23 14:25:46 2019

Academic license - for non-commercial use only

Gurobi 8.1.1 (linux64, Python) logging started Wed Oct 23 14:35:59 2019

Academic license - for non-commercial use only

Gurobi 8.1.1 (linux64, Python) logging started Wed Oct 23 14:37:37 2019

Academic license - for non-commercial use only

Gurobi 8.1.1 (linux64, Python) logging started Wed Oct 23 14:38:09 2019

Academic license - for non-commercial use only

Gurobi 8.1.1 (linux64, Python) logging started Wed Oct 23 14:38:52 2019

Academic license - for non-commercial use only

Gurobi 8.1.1 (linux64, Python) logging started Wed Oct 23 14:40:04 2019

Academic license - for non-commercial use only

Gurobi 8.1.1 (linux64, Python) logging started Wed Oct 23 14:41:13 2019

Academic license - for non-commercial use only

Gurobi 8.1.1 (linux64, Python) logging started Wed Oct 23 14:41:42 2019

Academic license - for non-commercial use only

Gurobi 8.1.1 (linux64, Python) logging started Wed Oct 23 15:05:35 2019

Academic license - for non-commercial use only

Gurobi 8.1.1 (linux64, Python) logging started Wed Oct 23 15:06:01 2019

Academic license - for non-commercial use only

Gurobi 8.1.1 (linux64, Python) logging started Wed Oct 23 15:06:25 2019

Academic license - for non-commercial use only

Gurobi 8.1.1 (linux64, Python) logging started Wed Oct 23 15:07:08 2019

Academic license - for non-commercial use only

Gurobi 8.1.1 (linux64, Python) logging started Wed Oct 23 15:07:16 2019

Academic license - for non-commercial use only

Gurobi 8.1.1 (linux64, Python) logging started Wed Oct 23 15:07:48 2019

Academic license - for non-commercial use only

Gurobi 8.1.1 (linux64, Python) logging started Wed Oct 23 15:08:13 2019

Academic license - for non-commercial use only

Gurobi 8.1.1 (linux64, Python) logging started Wed Oct 23 15:08:25 2019

Academic license - for non-commercial use only

Gurobi 8.1.1 (linux64, Python) logging started Wed Oct 23 15:08:40 2019

Academic license - for non-commercial use only

Gurobi 8.1.1 (linux64, Python) logging started Wed Oct 23 15:09:05 2019

Academic license - for non-commercial use only

Gurobi 8.1.1 (linux64, Python) logging started Wed Oct 23 15:09:16 2019

Academic license - for non-commercial use only

Gurobi 8.1.1 (linux64, Python) logging started Wed Oct 23 15:09:34 2019

Academic license - for non-commercial use only

Gurobi 8.1.1 (linux64, Python) logging started Wed Oct 23 15:25:12 2019

Academic license - for non-commercial use only

Gurobi 8.1.1 (linux64, Python) logging started Wed Oct 23 15:26:08 2019

Academic license - for non-commercial use only

Gurobi 8.1.1 (linux64, Python) logging started Wed Oct 23 15:33:27 2019

Academic license - for non-commercial use only

Gurobi 8.1.1 (linux64, Python) logging started Wed Oct 23 15:34:23 2019

Academic license - for non-commercial use only

Gurobi 8.1.1 (linux64, Python) logging started Wed Oct 23 15:34:51 2019

Academic license - for non-commercial use only

Gurobi 8.1.1 (linux64, Python) logging started Wed Oct 23 15:35:49 2019

Academic license - for non-commercial use only
Warning: Numeric variable name in LP file ('4abz_symport_trans') - often the result
         of a constant term in the left-hand side of a constraint.

Read LP format model from file /tmp/tmps8pt4e8_.lp
Reading time = 0.00 seconds
: 535 rows, 1394 columns, 5742 nonzeros
Warning: Numeric variable name in LP file ('4abz_symport_trans') - often the result
         of a constant term in the left-hand side of a constraint.

Read LP format model from file /tmp/tmpvxcsi7ni.lp
Reading time = 0.00 seconds
: 535 rows, 1394 columns, 5742 nonzeros
Warning: Numeric variable name in LP file ('4abz_symport_trans') - often the result
         of a constant term in the left-hand side of a constraint.

Read LP format model from file /tmp/tmppqkykqjx.lp
Reading time = 0.00 seconds
: 535 rows, 1394 columns, 5742 nonzeros
Warning: Numeric variable name in LP file ('4abz_symport_trans') - often the result
         of a constant term in the left-hand side of a constraint.

Read LP format model from file /tmp/tmpvpje8gsm.lp
Reading time = 0.00 seconds
: 535 rows, 1394 columns, 5742 nonzeros
Warning: Numeric variable name in LP file ('4abz_symport_trans') - often the result
         of a constant term in the left-hand side of a constraint.

Read LP format model from file /tmp/tmpd5sbnmwv.lp
Reading time = 0.00 seconds
: 535 rows, 1394 columns, 5742 nonzeros
Warning: Numeric variable name in LP file ('4abz_symport_trans') - often the result
         of a constant term in the left-hand side of a constraint.

Read LP format model from file /tmp/tmpn5508dl_.lp
Reading time = 0.00 seconds
: 535 rows, 1394 columns, 5742 nonzeros
Warning: Numeric variable name in LP file ('4abz_symport_trans') - often the result
         of a constant term in the left-hand side of a constraint.

Read LP format model from file /tmp/tmp6lr5cmyc.lp
Reading time = 0.00 seconds
: 535 rows, 1394 columns, 5742 nonzeros
Warning: Numeric variable name in LP file ('4abz_symport_trans') - often the result
         of a constant term in the left-hand side of a constraint.

Read LP format model from file /tmp/tmp_cpoh8jj.lp
Reading time = 0.00 seconds
: 535 rows, 1394 columns, 5742 nonzeros
Warning: Numeric variable name in LP file ('4abz_symport_trans') - often the result
         of a constant term in the left-hand side of a constraint.

Read LP format model from file /tmp/tmpzy0ztggh.lp
Reading time = 0.00 seconds
: 535 rows, 1394 columns, 5742 nonzeros
Warning: Numeric variable name in LP file ('4abz_symport_trans') - often the result
         of a constant term in the left-hand side of a constraint.

Read LP format model from file /tmp/tmph0m5k3i4.lp
Reading time = 0.00 seconds
: 535 rows, 1394 columns, 5742 nonzeros
Warning: Numeric variable name in LP file ('4abz_symport_trans') - often the result
         of a constant term in the left-hand side of a constraint.

Read LP format model from file /tmp/tmpbfk2qu8p.lp
Reading time = 0.00 seconds
: 535 rows, 1394 columns, 5742 nonzeros
Warning: Numeric variable name in LP file ('4abz_symport_trans') - often the result
         of a constant term in the left-hand side of a constraint.

Read LP format model from file /tmp/tmp5yyiu8hk.lp
Reading time = 0.00 seconds
: 535 rows, 1394 columns, 5742 nonzeros
Warning: Numeric variable name in LP file ('4abz_symport_trans') - often the result
         of a constant term in the left-hand side of a constraint.

Read LP format model from file /tmp/tmpo2gfkpos.lp
Reading time = 0.00 seconds
: 535 rows, 1394 columns, 5742 nonzeros
Warning: Numeric variable name in LP file ('4abz_symport_trans') - often the result
         of a constant term in the left-hand side of a constraint.

Read LP format model from file /tmp/tmpco27mzwl.lp
Reading time = 0.00 seconds
: 535 rows, 1394 columns, 5742 nonzeros
Warning: Numeric variable name in LP file ('4abz_symport_trans') - often the result
         of a constant term in the left-hand side of a constraint.

Read LP format model from file /tmp/tmpf1kx5cru.lp
Reading time = 0.00 seconds
: 535 rows, 1394 columns, 5742 nonzeros
Warning: Numeric variable name in LP file ('4abz_symport_trans') - often the result
         of a constant term in the left-hand side of a constraint.

Read LP format model from file /tmp/tmp4z92x060.lp
Reading time = 0.00 seconds
: 535 rows, 1394 columns, 5742 nonzeros
Warning: Numeric variable name in LP file ('4abz_symport_trans') - often the result
         of a constant term in the left-hand side of a constraint.

Read LP format model from file /tmp/tmp_lgh5y6t.lp
Reading time = 0.00 seconds
: 535 rows, 1394 columns, 5742 nonzeros
Warning: Numeric variable name in LP file ('4abz_symport_trans') - often the result
         of a constant term in the left-hand side of a constraint.

Read LP format model from file /tmp/tmp_dtd2_pj.lp
Reading time = 0.00 seconds
: 535 rows, 1394 columns, 5742 nonzeros
Warning: Numeric variable name in LP file ('4abz_symport_trans') - often the result
         of a constant term in the left-hand side of a constraint.

Read LP format model from file /tmp/tmpdk0hex2q.lp
Reading time = 0.00 seconds
: 535 rows, 1394 columns, 5742 nonzeros
Warning: Numeric variable name in LP file ('4abz_symport_trans') - often the result
         of a constant term in the left-hand side of a constraint.

Read LP format model from file /tmp/tmpdk5lb2jl.lp
Reading time = 0.00 seconds
: 535 rows, 1394 columns, 5742 nonzeros
Warning: Numeric variable name in LP file ('4abz_symport_trans') - often the result
         of a constant term in the left-hand side of a constraint.

Read LP format model from file /tmp/tmp08emo06o.lp
Reading time = 0.00 seconds
: 535 rows, 1394 columns, 5742 nonzeros
Warning: Numeric variable name in LP file ('4abz_symport_trans') - often the result
         of a constant term in the left-hand side of a constraint.

Read LP format model from file /tmp/tmp6t4mqwrd.lp
Reading time = 0.00 seconds
: 535 rows, 1394 columns, 5742 nonzeros
Warning: Numeric variable name in LP file ('4abz_symport_trans') - often the result
         of a constant term in the left-hand side of a constraint.

Read LP format model from file /tmp/tmp2s9bamc3.lp
Reading time = 0.00 seconds
: 535 rows, 1394 columns, 5742 nonzeros
Warning: Numeric variable name in LP file ('4abz_symport_trans') - often the result
         of a constant term in the left-hand side of a constraint.

Read LP format model from file /tmp/tmpc8dg7vgq.lp
Reading time = 0.00 seconds
: 535 rows, 1394 columns, 5742 nonzeros
Warning: Numeric variable name in LP file ('4abz_symport_trans') - often the result
         of a constant term in the left-hand side of a constraint.

Read LP format model from file /tmp/tmpeya73dor.lp
Reading time = 0.00 seconds
: 535 rows, 1394 columns, 5742 nonzeros
Warning: Numeric variable name in LP file ('4abz_symport_trans') - often the result
         of a constant term in the left-hand side of a constraint.

Read LP format model from file /tmp/tmpb55i7oc7.lp
Reading time = 0.00 seconds
: 535 rows, 1394 columns, 5742 nonzeros
Warning: Numeric variable name in LP file ('4abz_symport_trans') - often the result
         of a constant term in the left-hand side of a constraint.

Read LP format model from file /tmp/tmpvdtxkco4.lp
Reading time = 0.00 seconds
: 535 rows, 1394 columns, 5742 nonzeros
Warning: Numeric variable name in LP file ('4abz_symport_trans') - often the result
         of a constant term in the left-hand side of a constraint.

Read LP format model from file /tmp/tmphxe0d7dm.lp
Reading time = 0.00 seconds
: 535 rows, 1394 columns, 5742 nonzeros
Warning: Numeric variable name in LP file ('4abz_symport_trans') - often the result
         of a constant term in the left-hand side of a constraint.

Read LP format model from file /tmp/tmpqy0v4xb2.lp
Reading time = 0.00 seconds
: 535 rows, 1394 columns, 5742 nonzeros
Warning: Numeric variable name in LP file ('4abz_symport_trans') - often the result
         of a constant term in the left-hand side of a constraint.

Read LP format model from file /tmp/tmpjbf6xey7.lp
Reading time = 0.00 seconds
: 535 rows, 1394 columns, 5742 nonzeros
Warning: Numeric variable name in LP file ('4abz_symport_trans') - often the result
         of a constant term in the left-hand side of a constraint.

Read LP format model from file /tmp/tmpsds3h9hu.lp
Reading time = 0.00 seconds
: 535 rows, 1394 columns, 5742 nonzeros
Warning: Numeric variable name in LP file ('4abz_symport_trans') - often the result
         of a constant term in the left-hand side of a constraint.

Read LP format model from file /tmp/tmpde1bwag1.lp
Reading time = 0.00 seconds
: 535 rows, 1394 columns, 5742 nonzeros
Warning: Numeric variable name in LP file ('4abz_symport_trans') - often the result
         of a constant term in the left-hand side of a constraint.

Read LP format model from file /tmp/tmp8_ne3u11.lp
Reading time = 0.00 seconds
: 535 rows, 1394 columns, 5742 nonzeros
Warning: Numeric variable name in LP file ('4abz_symport_trans') - often the result
         of a constant term in the left-hand side of a constraint.

Read LP format model from file /tmp/tmpl2dwoev4.lp
Reading time = 0.00 seconds
: 535 rows, 1394 columns, 5742 nonzeros
Warning: Numeric variable name in LP file ('4abz_symport_trans') - often the result
         of a constant term in the left-hand side of a constraint.

Read LP format model from file /tmp/tmpdzocu10u.lp
Reading time = 0.00 seconds
: 535 rows, 1394 columns, 5742 nonzeros
Warning: Numeric variable name in LP file ('4abz_symport_trans') - often the result
         of a constant term in the left-hand side of a constraint.

Read LP format model from file /tmp/tmpgqzed6m1.lp
Reading time = 0.00 seconds
: 535 rows, 1394 columns, 5742 nonzeros
Warning: Numeric variable name in LP file ('4abz_symport_trans') - often the result
         of a constant term in the left-hand side of a constraint.

Read LP format model from file /tmp/tmpxjg0m5m2.lp
Reading time = 0.00 seconds
: 535 rows, 1394 columns, 5742 nonzeros
Warning: Numeric variable name in LP file ('4abz_symport_trans') - often the result
         of a constant term in the left-hand side of a constraint.

Read LP format model from file /tmp/tmpuo2l4q7z.lp
Reading time = 0.00 seconds
: 535 rows, 1394 columns, 5742 nonzeros
Warning: Numeric variable name in LP file ('4abz_symport_trans') - often the result
         of a constant term in the left-hand side of a constraint.

Read LP format model from file /tmp/tmp_xkpgoll.lp
Reading time = 0.00 seconds
: 535 rows, 1394 columns, 5742 nonzeros
Warning: Numeric variable name in LP file ('4abz_symport_trans') - often the result
         of a constant term in the left-hand side of a constraint.

Read LP format model from file /tmp/tmpebwg_66v.lp
Reading time = 0.00 seconds
: 535 rows, 1394 columns, 5742 nonzeros
Warning: Numeric variable name in LP file ('4abz_symport_trans') - often the result
         of a constant term in the left-hand side of a constraint.

Read LP format model from file /tmp/tmp75mn817t.lp
Reading time = 0.00 seconds
: 535 rows, 1394 columns, 5742 nonzeros
Warning: Numeric variable name in LP file ('4abz_symport_trans') - often the result
         of a constant term in the left-hand side of a constraint.

Read LP format model from file /tmp/tmpkb7zidbv.lp
Reading time = 0.00 seconds
: 535 rows, 1394 columns, 5742 nonzeros
Warning: Numeric variable name in LP file ('4abz_symport_trans') - often the result
         of a constant term in the left-hand side of a constraint.

Read LP format model from file /tmp/tmpkr1uiun_.lp
Reading time = 0.00 seconds
: 535 rows, 1394 columns, 5742 nonzeros
Warning: Numeric variable name in LP file ('4abz_symport_trans') - often the result
         of a constant term in the left-hand side of a constraint.

Read LP format model from file /tmp/tmpxg8rba35.lp
Reading time = 0.00 seconds
: 535 rows, 1394 columns, 5742 nonzeros
Warning: Numeric variable name in LP file ('4abz_symport_trans') - often the result
         of a constant term in the left-hand side of a constraint.

Read LP format model from file /tmp/tmpxxx198s8.lp
Reading time = 0.00 seconds
: 535 rows, 1394 columns, 5742 nonzeros
Warning: Numeric variable name in LP file ('4abz_symport_trans') - often the result
         of a constant term in the left-hand side of a constraint.

Read LP format model from file /tmp/tmpvcy7q9v2.lp
Reading time = 0.00 seconds
: 535 rows, 1394 columns, 5742 nonzeros
Warning: Numeric variable name in LP file ('4abz_symport_trans') - often the result
         of a constant term in the left-hand side of a constraint.

Read LP format model from file /tmp/tmp3vnk0bzl.lp
Reading time = 0.00 seconds
: 535 rows, 1394 columns, 5742 nonzeros
Warning: Numeric variable name in LP file ('4abz_symport_trans') - often the result
         of a constant term in the left-hand side of a constraint.

Read LP format model from file /tmp/tmp_0d2_e8_.lp
Reading time = 0.00 seconds
: 535 rows, 1394 columns, 5742 nonzeros
Warning: Numeric variable name in LP file ('4abz_symport_trans') - often the result
         of a constant term in the left-hand side of a constraint.

Read LP format model from file /tmp/tmpggr1w3sd.lp
Reading time = 0.00 seconds
: 535 rows, 1394 columns, 5742 nonzeros
Warning: Numeric variable name in LP file ('4abz_symport_trans') - often the result
         of a constant term in the left-hand side of a constraint.

Read LP format model from file /tmp/tmpvl6whd_5.lp
Reading time = 0.00 seconds
: 535 rows, 1394 columns, 5742 nonzeros
Warning: Numeric variable name in LP file ('4abz_symport_trans') - often the result
         of a constant term in the left-hand side of a constraint.

Read LP format model from file /tmp/tmpbva8s9n2.lp
Reading time = 0.00 seconds
: 535 rows, 1394 columns, 5742 nonzeros
Warning: Numeric variable name in LP file ('4abz_symport_trans') - often the result
         of a constant term in the left-hand side of a constraint.

Read LP format model from file /tmp/tmpmgaah17s.lp
Reading time = 0.00 seconds
: 535 rows, 1394 columns, 5742 nonzeros
Warning: Numeric variable name in LP file ('4abz_symport_trans') - often the result
         of a constant term in the left-hand side of a constraint.

Read LP format model from file /tmp/tmpt1auxkf2.lp
Reading time = 0.00 seconds
: 535 rows, 1394 columns, 5742 nonzeros
Warning: Numeric variable name in LP file ('4abz_symport_trans') - often the result
         of a constant term in the left-hand side of a constraint.

Read LP format model from file /tmp/tmp9cg4d6_m.lp
Reading time = 0.00 seconds
: 535 rows, 1394 columns, 5742 nonzeros
Warning: Numeric variable name in LP file ('4abz_symport_trans') - often the result
         of a constant term in the left-hand side of a constraint.

Read LP format model from file /tmp/tmpyxbsugxh.lp
Reading time = 0.00 seconds
: 535 rows, 1394 columns, 5742 nonzeros
Warning: Numeric variable name in LP file ('4abz_symport_trans') - often the result
         of a constant term in the left-hand side of a constraint.

Read LP format model from file /tmp/tmpcsy7dn12.lp
Reading time = 0.00 seconds
: 535 rows, 1394 columns, 5742 nonzeros
Warning: Numeric variable name in LP file ('4abz_symport_trans') - often the result
         of a constant term in the left-hand side of a constraint.

Read LP format model from file /tmp/tmpcfipdv0i.lp
Reading time = 0.00 seconds
: 535 rows, 1394 columns, 5742 nonzeros
Warning: Numeric variable name in LP file ('4abz_symport_trans') - often the result
         of a constant term in the left-hand side of a constraint.

Read LP format model from file /tmp/tmp83yr6bi6.lp
Reading time = 0.00 seconds
: 535 rows, 1394 columns, 5742 nonzeros
Warning: Numeric variable name in LP file ('4abz_symport_trans') - often the result
         of a constant term in the left-hand side of a constraint.

Read LP format model from file /tmp/tmpf_blkik1.lp
Reading time = 0.00 seconds
: 535 rows, 1394 columns, 5742 nonzeros
Warning: Numeric variable name in LP file ('4abz_symport_trans') - often the result
         of a constant term in the left-hand side of a constraint.

Read LP format model from file /tmp/tmpldndi74z.lp
Reading time = 0.00 seconds
: 535 rows, 1394 columns, 5742 nonzeros
Warning: Numeric variable name in LP file ('4abz_symport_trans') - often the result
         of a constant term in the left-hand side of a constraint.

Read LP format model from file /tmp/tmp5fzlby2s.lp
Reading time = 0.00 seconds
: 535 rows, 1394 columns, 5742 nonzeros
Warning: Numeric variable name in LP file ('4abz_symport_trans') - often the result
         of a constant term in the left-hand side of a constraint.

Read LP format model from file /tmp/tmp8vac15u9.lp
Reading time = 0.00 seconds
: 535 rows, 1394 columns, 5742 nonzeros
Warning: Numeric variable name in LP file ('4abz_symport_trans') - often the result
         of a constant term in the left-hand side of a constraint.

Read LP format model from file /tmp/tmp1r6_82nj.lp
Reading time = 0.00 seconds
: 535 rows, 1394 columns, 5742 nonzeros
Warning: Numeric variable name in LP file ('4abz_symport_trans') - often the result
         of a constant term in the left-hand side of a constraint.

Read LP format model from file /tmp/tmporshezwf.lp
Reading time = 0.00 seconds
: 535 rows, 1394 columns, 5742 nonzeros
Warning: Numeric variable name in LP file ('4abz_symport_trans') - often the result
         of a constant term in the left-hand side of a constraint.

Read LP format model from file /tmp/tmp_zuodpn_.lp
Reading time = 0.00 seconds
: 535 rows, 1394 columns, 5742 nonzeros
Warning: Numeric variable name in LP file ('4abz_symport_trans') - often the result
         of a constant term in the left-hand side of a constraint.

Read LP format model from file /tmp/tmp8qz7ljdz.lp
Reading time = 0.00 seconds
: 535 rows, 1394 columns, 5742 nonzeros
Warning: Numeric variable name in LP file ('4abz_symport_trans') - often the result
         of a constant term in the left-hand side of a constraint.

Read LP format model from file /tmp/tmpeudxhlgr.lp
Reading time = 0.00 seconds
: 535 rows, 1394 columns, 5742 nonzeros
Warning: Numeric variable name in LP file ('4abz_symport_trans') - often the result
         of a constant term in the left-hand side of a constraint.

Read LP format model from file /tmp/tmpa9ak6i6t.lp
Reading time = 0.00 seconds
: 535 rows, 1394 columns, 5742 nonzeros
Warning: Numeric variable name in LP file ('4abz_symport_trans') - often the result
         of a constant term in the left-hand side of a constraint.

Read LP format model from file /tmp/tmp0hjtpxlx.lp
Reading time = 0.00 seconds
: 535 rows, 1394 columns, 5742 nonzeros
Warning: Numeric variable name in LP file ('4abz_symport_trans') - often the result
         of a constant term in the left-hand side of a constraint.

Read LP format model from file /tmp/tmp0jvvdhuk.lp
Reading time = 0.00 seconds
: 535 rows, 1394 columns, 5742 nonzeros
Warning: Numeric variable name in LP file ('4abz_symport_trans') - often the result
         of a constant term in the left-hand side of a constraint.

Read LP format model from file /tmp/tmpg2v7aryb.lp
Reading time = 0.00 seconds
: 535 rows, 1394 columns, 5742 nonzeros
Warning: Numeric variable name in LP file ('4abz_symport_trans') - often the result
         of a constant term in the left-hand side of a constraint.

Read LP format model from file /tmp/tmpzdu6fp17.lp
Reading time = 0.00 seconds
: 535 rows, 1394 columns, 5742 nonzeros
Warning: Numeric variable name in LP file ('4abz_symport_trans') - often the result
         of a constant term in the left-hand side of a constraint.

Read LP format model from file /tmp/tmp1g1tasds.lp
Reading time = 0.00 seconds
: 535 rows, 1394 columns, 5742 nonzeros
Warning: Numeric variable name in LP file ('4abz_symport_trans') - often the result
         of a constant term in the left-hand side of a constraint.

Read LP format model from file /tmp/tmpf9b7kvrf.lp
Reading time = 0.00 seconds
: 535 rows, 1394 columns, 5742 nonzeros
Warning: Numeric variable name in LP file ('4abz_symport_trans') - often the result
         of a constant term in the left-hand side of a constraint.

Read LP format model from file /tmp/tmpfqen8fdb.lp
Reading time = 0.00 seconds
: 535 rows, 1394 columns, 5742 nonzeros
Warning: Numeric variable name in LP file ('4abz_symport_trans') - often the result
         of a constant term in the left-hand side of a constraint.

Read LP format model from file /tmp/tmpp21m0b57.lp
Reading time = 0.00 seconds
: 535 rows, 1394 columns, 5742 nonzeros
Warning: Numeric variable name in LP file ('4abz_symport_trans') - often the result
         of a constant term in the left-hand side of a constraint.

Read LP format model from file /tmp/tmp60bsuh6o.lp
Reading time = 0.00 seconds
: 535 rows, 1394 columns, 5742 nonzeros
Warning: Numeric variable name in LP file ('4abz_symport_trans') - often the result
         of a constant term in the left-hand side of a constraint.

Read LP format model from file /tmp/tmp05ps3n54.lp
Reading time = 0.00 seconds
: 535 rows, 1394 columns, 5742 nonzeros
Warning: Numeric variable name in LP file ('4abz_symport_trans') - often the result
         of a constant term in the left-hand side of a constraint.

Read LP format model from file /tmp/tmph0kz66cm.lp
Reading time = 0.00 seconds
: 535 rows, 1394 columns, 5742 nonzeros
Warning: Numeric variable name in LP file ('4abz_symport_trans') - often the result
         of a constant term in the left-hand side of a constraint.

Read LP format model from file /tmp/tmpwheardcu.lp
Reading time = 0.00 seconds
: 535 rows, 1394 columns, 5742 nonzeros
Warning: Numeric variable name in LP file ('4abz_symport_trans') - often the result
         of a constant term in the left-hand side of a constraint.

Read LP format model from file /tmp/tmpkzfaf4gj.lp
Reading time = 0.00 seconds
: 535 rows, 1394 columns, 5742 nonzeros
Warning: Numeric variable name in LP file ('4abz_symport_trans') - often the result
         of a constant term in the left-hand side of a constraint.

Read LP format model from file /tmp/tmpif6sq70p.lp
Reading time = 0.00 seconds
: 535 rows, 1394 columns, 5742 nonzeros
Warning: Numeric variable name in LP file ('4abz_symport_trans') - often the result
         of a constant term in the left-hand side of a constraint.

Read LP format model from file /tmp/tmpmmp6slng.lp
Reading time = 0.00 seconds
: 535 rows, 1394 columns, 5742 nonzeros
Warning: Numeric variable name in LP file ('4abz_symport_trans') - often the result
         of a constant term in the left-hand side of a constraint.

Read LP format model from file /tmp/tmpuru8x2sr.lp
Reading time = 0.00 seconds
: 535 rows, 1394 columns, 5742 nonzeros
Warning: Numeric variable name in LP file ('4abz_symport_trans') - often the result
         of a constant term in the left-hand side of a constraint.

Read LP format model from file /tmp/tmpjp0spsj0.lp
Reading time = 0.00 seconds
: 535 rows, 1394 columns, 5742 nonzeros
Warning: Numeric variable name in LP file ('4abz_symport_trans') - often the result
         of a constant term in the left-hand side of a constraint.

Read LP format model from file /tmp/tmpua1m12vl.lp
Reading time = 0.00 seconds
: 535 rows, 1394 columns, 5742 nonzeros
Warning: Numeric variable name in LP file ('4abz_symport_trans') - often the result
         of a constant term in the left-hand side of a constraint.

Read LP format model from file /tmp/tmpzxgp_tb1.lp
Reading time = 0.00 seconds
: 535 rows, 1394 columns, 5742 nonzeros
Warning: Numeric variable name in LP file ('4abz_symport_trans') - often the result
         of a constant term in the left-hand side of a constraint.

Read LP format model from file /tmp/tmpfp79_fdl.lp
Reading time = 0.00 seconds
: 535 rows, 1394 columns, 5742 nonzeros
Warning: Numeric variable name in LP file ('4abz_symport_trans') - often the result
         of a constant term in the left-hand side of a constraint.

Read LP format model from file /tmp/tmp29cz0ceq.lp
Reading time = 0.00 seconds
: 535 rows, 1394 columns, 5742 nonzeros
Warning: Numeric variable name in LP file ('4abz_symport_trans') - often the result
         of a constant term in the left-hand side of a constraint.

Read LP format model from file /tmp/tmp1g7fg5cv.lp
Reading time = 0.00 seconds
: 535 rows, 1394 columns, 5742 nonzeros
Warning: Numeric variable name in LP file ('4abz_symport_trans') - often the result
         of a constant term in the left-hand side of a constraint.

Read LP format model from file /tmp/tmpazatqb8o.lp
Reading time = 0.00 seconds
: 535 rows, 1394 columns, 5742 nonzeros
Warning: Numeric variable name in LP file ('4abz_symport_trans') - often the result
         of a constant term in the left-hand side of a constraint.

Read LP format model from file /tmp/tmpcbkcgmff.lp
Reading time = 0.00 seconds
: 535 rows, 1394 columns, 5742 nonzeros
Warning: Numeric variable name in LP file ('4abz_symport_trans') - often the result
         of a constant term in the left-hand side of a constraint.

Read LP format model from file /tmp/tmpn7z873ot.lp
Reading time = 0.00 seconds
: 535 rows, 1394 columns, 5742 nonzeros
Warning: Numeric variable name in LP file ('4abz_symport_trans') - often the result
         of a constant term in the left-hand side of a constraint.

Read LP format model from file /tmp/tmpwu3xx927.lp
Reading time = 0.00 seconds
: 535 rows, 1394 columns, 5742 nonzeros

Gurobi 8.1.1 (linux64, Python) logging started Wed Oct 23 15:37:12 2019

Academic license - for non-commercial use only

Gurobi 8.1.1 (linux64, Python) logging started Wed Oct 23 15:38:32 2019

Academic license - for non-commercial use only

Gurobi 8.1.1 (linux64, Python) logging started Wed Oct 23 15:38:41 2019

Academic license - for non-commercial use only

Gurobi 8.1.1 (linux64, Python) logging started Wed Oct 23 15:39:00 2019

Academic license - for non-commercial use only

Gurobi 8.1.1 (linux64, Python) logging started Wed Oct 23 15:49:23 2019

Academic license - for non-commercial use only

Gurobi 8.1.1 (linux64, Python) logging started Wed Oct 23 15:53:17 2019

Academic license - for non-commercial use only

Gurobi 8.1.1 (linux64, Python) logging started Wed Oct 23 15:54:38 2019

Academic license - for non-commercial use only

Gurobi 8.1.1 (linux64, Python) logging started Wed Oct 23 15:54:51 2019

Academic license - for non-commercial use only

Gurobi 8.1.1 (linux64, Python) logging started Wed Oct 23 15:57:23 2019

Academic license - for non-commercial use only

Gurobi 8.1.1 (linux64, Python) logging started Thu Oct 24 09:39:14 2019

Academic license - for non-commercial use only

Gurobi 8.1.1 (linux64, Python) logging started Thu Oct 24 09:41:35 2019

Academic license - for non-commercial use only

Gurobi 8.1.1 (linux64, Python) logging started Thu Oct 24 09:42:14 2019

Academic license - for non-commercial use only

Gurobi 8.1.1 (linux64, Python) logging started Thu Oct 24 09:42:49 2019

Academic license - for non-commercial use only

Gurobi 8.1.1 (linux64, Python) logging started Thu Oct 24 09:45:17 2019

Academic license - for non-commercial use only

Gurobi 8.1.1 (linux64, Python) logging started Thu Oct 24 09:50:40 2019

Academic license - for non-commercial use only

Gurobi 8.1.1 (linux64, Python) logging started Thu Oct 24 09:59:42 2019

Academic license - for non-commercial use only

Gurobi 8.1.1 (linux64, Python) logging started Thu Oct 24 10:00:25 2019

Academic license - for non-commercial use only

Gurobi 8.1.1 (linux64, Python) logging started Thu Oct 24 10:00:31 2019

Academic license - for non-commercial use only

Gurobi 8.1.1 (linux64, Python) logging started Thu Oct 24 10:00:47 2019

Academic license - for non-commercial use only

Gurobi 8.1.1 (linux64, Python) logging started Thu Oct 24 10:01:08 2019

Academic license - for non-commercial use only

Gurobi 8.1.1 (linux64, Python) logging started Thu Oct 24 10:13:08 2019

Academic license - for non-commercial use only

Gurobi 8.1.1 (linux64, Python) logging started Thu Oct 24 10:14:10 2019

Academic license - for non-commercial use only

Gurobi 8.1.1 (linux64, Python) logging started Thu Oct 24 10:14:47 2019

Academic license - for non-commercial use only

Gurobi 8.1.1 (linux64, Python) logging started Thu Oct 24 10:14:56 2019

Academic license - for non-commercial use only

Gurobi 8.1.1 (linux64, Python) logging started Thu Oct 24 10:15:19 2019

Academic license - for non-commercial use only

Gurobi 8.1.1 (linux64, Python) logging started Thu Oct 24 10:16:18 2019

Academic license - for non-commercial use only

Gurobi 8.1.1 (linux64, Python) logging started Thu Oct 24 10:17:05 2019

Academic license - for non-commercial use only

Gurobi 8.1.1 (linux64, Python) logging started Thu Oct 24 10:17:19 2019

Academic license - for non-commercial use only

Gurobi 8.1.1 (linux64, Python) logging started Thu Oct 24 10:18:45 2019

Academic license - for non-commercial use only

Gurobi 8.1.1 (linux64, Python) logging started Thu Oct 24 10:19:22 2019

Academic license - for non-commercial use only

Gurobi 8.1.1 (linux64, Python) logging started Thu Oct 24 10:19:32 2019

Academic license - for non-commercial use only

Gurobi 8.1.1 (linux64, Python) logging started Thu Oct 24 10:19:41 2019

Academic license - for non-commercial use only

Gurobi 8.1.1 (linux64, Python) logging started Thu Oct 24 10:44:13 2019

Academic license - for non-commercial use only

Gurobi 8.1.1 (linux64, Python) logging started Thu Oct 24 10:44:18 2019

Academic license - for non-commercial use only

Gurobi 8.1.1 (linux64, Python) logging started Thu Oct 24 10:44:41 2019

Academic license - for non-commercial use only

Gurobi 8.1.1 (linux64, Python) logging started Thu Oct 24 10:45:49 2019

Academic license - for non-commercial use only

Gurobi 8.1.1 (linux64, Python) logging started Thu Oct 24 11:02:15 2019

Academic license - for non-commercial use only

Gurobi 8.1.1 (linux64, Python) logging started Thu Oct 24 11:03:00 2019

Academic license - for non-commercial use only

Gurobi 8.1.1 (linux64, Python) logging started Thu Oct 24 11:03:17 2019

Academic license - for non-commercial use only

Gurobi 8.1.1 (linux64, Python) logging started Thu Oct 24 13:46:04 2019

Academic license - for non-commercial use only

Gurobi 8.1.1 (linux64, Python) logging started Thu Oct 24 13:46:44 2019

Academic license - for non-commercial use only

Gurobi 8.1.1 (linux64, Python) logging started Thu Oct 24 13:47:38 2019

Academic license - for non-commercial use only

Gurobi 8.1.1 (linux64, Python) logging started Thu Oct 24 13:48:38 2019

Academic license - for non-commercial use only

Gurobi 8.1.1 (linux64, Python) logging started Thu Oct 24 13:50:17 2019

Academic license - for non-commercial use only

Gurobi 8.1.1 (linux64, Python) logging started Thu Oct 24 13:51:05 2019

Academic license - for non-commercial use only

Gurobi 8.1.1 (linux64, Python) logging started Thu Oct 24 13:51:18 2019

Academic license - for non-commercial use only

Gurobi 8.1.1 (linux64, Python) logging started Thu Oct 24 13:52:02 2019

Academic license - for non-commercial use only

Gurobi 8.1.1 (linux64, Python) logging started Thu Oct 24 15:38:29 2019

Academic license - for non-commercial use only

Gurobi 8.1.1 (linux64, Python) logging started Thu Oct 24 16:31:48 2019

Academic license - for non-commercial use only

Gurobi 8.1.1 (linux64, Python) logging started Thu Oct 24 16:35:22 2019

Academic license - for non-commercial use only

Gurobi 8.1.1 (linux64, Python) logging started Thu Oct 24 16:36:17 2019

Academic license - for non-commercial use only

Gurobi 8.1.1 (linux64, Python) logging started Thu Oct 24 16:36:32 2019

Academic license - for non-commercial use only

Gurobi 8.1.1 (linux64, Python) logging started Thu Oct 24 16:36:57 2019

Academic license - for non-commercial use only

Gurobi 8.1.1 (linux64, Python) logging started Thu Oct 24 16:38:28 2019

Academic license - for non-commercial use only

Gurobi 8.1.1 (linux64, Python) logging started Thu Oct 24 16:44:58 2019

Academic license - for non-commercial use only

Gurobi 8.1.1 (linux64, Python) logging started Thu Oct 24 17:46:35 2019

Academic license - for non-commercial use only

Gurobi 8.1.1 (linux64, Python) logging started Thu Oct 24 17:47:43 2019

Academic license - for non-commercial use only

Gurobi 8.1.1 (linux64, Python) logging started Thu Oct 24 17:48:38 2019

Academic license - for non-commercial use only

Gurobi 8.1.1 (linux64, Python) logging started Thu Oct 24 17:48:48 2019

Academic license - for non-commercial use only

Gurobi 8.1.1 (linux64, Python) logging started Thu Oct 24 17:50:29 2019

Academic license - for non-commercial use only

Gurobi 8.1.1 (linux64, Python) logging started Thu Oct 24 17:52:37 2019

Academic license - for non-commercial use only

Gurobi 8.1.1 (linux64, Python) logging started Thu Oct 24 17:55:48 2019

Academic license - for non-commercial use only

Gurobi 8.1.1 (linux64, Python) logging started Thu Oct 24 17:56:23 2019

Academic license - for non-commercial use only

Gurobi 8.1.1 (linux64, Python) logging started Thu Oct 24 17:58:30 2019

Academic license - for non-commercial use only
